NAME          COPTPROB
OBJSENSE
  MIN
ROWS
 N  __OBJ___
 L  C11     
 L  C45     
 L  C65     
 L  C130    
 L  C139    
COLUMNS
    MARKER    'MARKER'                 'INTORG'
    x123      __OBJ___  144
    x123      C11       -1
    x1321     __OBJ___  167
    x1321     C11       -1
    x1321     C65       -1
    x1605     __OBJ___  109
    x1605     C45       -1
    x1605     C65       -1
    x1780     __OBJ___  210
    x1780     C11       -1
    x1780     C139      -1
    x1822     __OBJ___  44
    x1822     C45       -1
    x1880     __OBJ___  164
    x1880     C130      -1
    x1880     C139      -1
    x2221     __OBJ___  151
    x2221     C139      -1
    x2443     __OBJ___  52
    x2443     C45       -1
    x2443     C130      -1
    x3111     __OBJ___  73
    x3111     C65       -1
    MARKER    'MARKER'                 'INTEND'
RHS
    RHS       __OBJ___  -4532
    RHS       C11       -1
    RHS       C45       -1
    RHS       C65       -1
    RHS       C130      -1
    RHS       C139      -1
BOUNDS
 UP BOUND     x123      1
 UP BOUND     x1321     1
 UP BOUND     x1605     1
 UP BOUND     x1780     1
 UP BOUND     x1822     1
 UP BOUND     x1880     1
 UP BOUND     x2221     1
 UP BOUND     x2443     1
 UP BOUND     x3111     1
ENDATA
